0 7 9 3 8 12 15 6 5 10
7 0 5 4 2 9 8 14 11 3
9 5 0 11 6 8 13 10 7 4
3 4 11 0 7 10 5 12 8 6
8 2 6 7 0 9 11 8 4 7
12 9 8 10 9 0 6 5 3 11
15 8 13 5 11 6 0 9 10 2
6 14 10 12 8 5 9 0 7 13
5 11 7 8 4 3 10 7 0 8
10 3 4 6 7 11 2 13 8 0 